155
166
204
179
156
185
140
186
165
184
169
198
188
156
0
253
140
157
173
179
175
244
190
222
136
194
210
191
177
163
207
183
143
134
229
238
199
222
155
219
196
205
235
205
162
163
140
211
220
149
198
165
173
220
222
207
196
177
207
128
195
161
194
126
239
201
178
133
196
136
170
170
255
261
141
234
244
221
176
167
171
162
211
208
227
203
221
226
245
175
177
152
167
178
164
192
236
166
186
234
